Minimize
  obj: x0 + x1 + x2 + x3 + x4 + x5 + x6 + x7

Subject To
  c0: x0 + x1 + x2 + x3 + x5 + x6 + x7 = 215
  c1: x0 + x2 + x4 + x7 = 175
  c2: x0 + x2 + x3 = 29
  c3: x0 + x1 + x3 + x4 + x5 + x6 + x7 = 209
  c4: x0 + x1 + x2 + x3 + x6 = 49
  c5: x0 + x2 + x3 + x5 + x7 = 195
  c6: x0 + x1 + x2 + x3 + x4 + x5 + x6 + x7 = 217
  c7: x2 + x4 + x7 = 172
  c8: x2 + x3 + x5 + x6 = 39

Bounds
  x0 >= 0
  x1 >= 0
  x2 >= 0
  x3 >= 0
  x4 >= 0
  x5 >= 0
  x6 >= 0
  x7 >= 0

Generals
  x0 x1 x2 x3 x4 x5 x6 x7

End
